LiTeLLab/finalCaseStudies/agrk15.output.txt
--- time 0 ---
somePlant42
somePlant52
somePlant62
somePlant6
winter
somePlant1
somePlant4
somePlant5
somePlant12
rest
newSeason
somePlant3
x = 2
Old_plant = 3.6667
plant = 0
Old_x = 2
otlLength = 1
otlDelta = 1
--- time 1 ---
*LOOP*
loops
plant1
spring
newSeason
x = 0
Old_plant = 1
plant = 0
Old_x = 3
otlLength = 3
otlDelta = 3
--- time 2 ---
plant3
summer
newSeason
x = 0
Old_plant = 3
plant = 0
Old_x = 3
otlLength = 2
otlDelta = 2
--- time 3 ---
plant4
summer
x = 2
Old_plant = 2
plant = 0
Old_x = 2
otlLength = 1
otlDelta = 1
--- time 4 ---
plant4
autumn
newSeason
x = 0
Old_plant = 1
plant = 1
Old_x = 3
otlLength = 1
otlDelta = 1
--- time 5 ---
autumn
plant6
x = 1
Old_plant = 2
plant = 0
Old_x = 1
otlLength = 1
otlDelta = 1
--- time 6 ---
plant5
autumn
x = 2
Old_plant = 1
plant = 0
Old_x = 2
otlLength = 1
otlDelta = 1
--- time 7 ---
plant5
winter
newSeason
x = 0
Old_plant = 1
plant = 1
Old_x = 3
otlLength = 3
otlDelta = 3
--- time 8 ---
spring
rest
newSeason
x = 0
Old_plant = 4
plant = 0
Old_x = 3
otlLength = 1
otlDelta = 1
--- time 9 ---
plant1
spring
x = 1
Old_plant = 1
plant = 0
Old_x = 1
otlLength = 2
otlDelta = 2
--- time 10 ---
plant1
summer
newSeason
x = 0
Old_plant = 2
plant = 2
Old_x = 3
otlLength = 1
otlDelta = 1
--- time 11 ---
plant4
summer
x = 1
Old_plant = 3
plant = 0
Old_x = 1
otlLength = 2
otlDelta = 2
--- time 12 ---
autumn
plant6
newSeason
x = 0
Old_plant = 2
plant = 0
Old_x = 3
otlLength = 1
otlDelta = 1
--- time 13 ---
plant5
autumn
x = 1
Old_plant = 1
plant = 0
Old_x = 1
otlLength = 2
otlDelta = 2
--- time 14 ---
plant5
winter
newSeason
x = 0
Old_plant = 2
plant = 2
Old_x = 3
otlLength = 2
otlDelta = 2
--- time 15 ---
winter
rest
x = 2
Old_plant = 4
plant = 0
Old_x = 2
otlLength = 1
otlDelta = 1

 costHAvg 0
 costLSum 31.3

