LiTeLLab/finalCaseStudies/agrk15.z3.output.txt
sat
(
  (define-fun otl127 () (_ BitVec 17)
    #b11111111111111111)
  (define-fun otl315 () (_ BitVec 17)
    #b11111111111110111)
  (define-fun otl_gt_x_4 () (_ BitVec 17)
    #b00000000000000000)
  (define-fun somePlant42 () (_ BitVec 17)
    #b00000000000000001)
  (define-fun otl232 () (_ BitVec 17)
    #b00000100000000100)
  (define-fun otl93 () (_ BitVec 17)
    #b11111111111111111)
  (define-fun otl326 () (_ BitVec 17)
    #b00000000000000000)
  (define-fun otl311 () (_ BitVec 17)
    #b11111111101111111)
  (define-fun otl15 () (_ BitVec 17)
    #b00000000000000001)
  (define-fun otl313 () (_ BitVec 17)
    #b11111111111011111)
  (define-fun plant7 () (_ BitVec 17)
    #b00000000000000000)
  (define-fun otl37 () (_ BitVec 17)
    #b00000000000000000)
  (define-fun otl57 () (_ BitVec 17)
    #b11111111111111111)
  (define-fun otl49 () (_ BitVec 17)
    #b00000000000000000)
  (define-fun otl192 () (_ BitVec 17)
    #b00101010000101000)
  (define-fun otl2 () (_ BitVec 17)
    #b11111111111111111)
  (define-fun otl81 () (_ BitVec 17)
    #b11111111111111111)
  (define-fun otl246 () (_ BitVec 17)
    #b11111111111111111)
  (define-fun otl_geq_Old_plant_2 () (_ BitVec 17)
    #b01101110100101100)
  (define-fun otl102 () (_ BitVec 17)
    #b11111111111111111)
  (define-fun otl142 () (_ BitVec 17)
    #b00000000000000000)
  (define-fun otl321 () (_ BitVec 17)
    #b00000000000000000)
  (define-fun otl309 () (_ BitVec 17)
    #b11111110111111111)
  (define-fun otl216 () (_ BitVec 17)
    #b01110000111000000)
  (define-fun otl304 () (_ BitVec 17)
    #b11011111111111111)
  (define-fun otl34 () (_ BitVec 17)
    #b00000000000000000)
  (define-fun w1somePlant72 () (_ BitVec 17)
    #b00000010110110001)
  (define-fun otl134 () (_ BitVec 17)
    #b00000000000000000)
  (define-fun otl319 () (_ BitVec 17)
    #b11111111111111111)
  (define-fun otl303 () (_ BitVec 17)
    #b10111111111111110)
  (define-fun otl_eq_Old_x_3 () (_ BitVec 17)
    #b10101010110010110)
  (define-fun otl76 () (_ BitVec 17)
    #b00000000000000000)
  (define-fun otl28 () (_ BitVec 17)
    #b00000000000000000)
  (define-fun otl79 () (_ BitVec 17)
    #b00000000000000000)
  (define-fun otl_eq_x_0 () (_ BitVec 17)
    #b10101010110010110)
  (define-fun otl316 () (_ BitVec 17)
    #b11111111111111011)
  (define-fun otl139 () (_ BitVec 17)
    #b00000000000000000)
  (define-fun otl252 () (_ BitVec 17)
    #b01101110100101100)
  (define-fun otl_gt_plant_4 () (_ BitVec 17)
    #b00000000000000000)
  (define-fun otl25 () (_ BitVec 17)
    #b00000000000000000)
  (define-fun otl310 () (_ BitVec 17)
    #b11111111011111111)
  (define-fun somePlant82 () (_ BitVec 17)
    #b00000000000000000)
  (define-fun otl48 () (_ BitVec 17)
    #b00000000000000001)
  (define-fun w1somePlant42 () (_ BitVec 17)
    #b00000000010010001)
  (define-fun otl10 () (_ BitVec 17)
    #b00000000000000000)
  (define-fun otl247 () (_ BitVec 17)
    #b11111111111111111)
  (define-fun otl90 () (_ BitVec 17)
    #b00000000000000000)
  (define-fun otl7 () (_ BitVec 17)
    #b11111111111111111)
  (define-fun otl294 () (_ BitVec 17)
    #b11111111111111111)
  (define-fun otl88 () (_ BitVec 17)
    #b10000000000000010)
  (define-fun otl91 () (_ BitVec 17)
    #b00000000000000000)
  (define-fun otl42 () (_ BitVec 17)
    #b00000000000000001)
  (define-fun otl36 () (_ BitVec 17)
    #b00000000000000000)
  (define-fun otl52 () (_ BitVec 17)
    #b00000000000000000)
  (define-fun otl78 () (_ BitVec 17)
    #b00000000000000000)
  (define-fun otl233 () (_ BitVec 17)
    #b10000010000000010)
  (define-fun w1somePlant62 () (_ BitVec 17)
    #b00000000010110001)
  (define-fun w1somePlant8 () (_ BitVec 17)
    #b00000010110110001)
  (define-fun plant5 () (_ BitVec 17)
    #b00110000011000000)
  (define-fun otl51 () (_ BitVec 17)
    #b00000000000000000)
  (define-fun otl_eq_plant_0 () (_ BitVec 17)
    #b11011101101101111)
  (define-fun somePlant8 () (_ BitVec 17)
    #b00000000000000000)
  (define-fun somePlant1 () (_ BitVec 17)
    #b00000000000000001)
  (define-fun autumn () (_ BitVec 17)
    #b00011000001110000)
  (define-fun otl307 () (_ BitVec 17)
    #b11111011111111111)
  (define-fun w1somePlant82 () (_ BitVec 17)
    #b00000010110110001)
  (define-fun otl193 () (_ BitVec 17)
    #b00010101000010100)
  (define-fun otl106 () (_ BitVec 17)
    #b11111111111111111)
  (define-fun otl45 () (_ BitVec 17)
    #b00000000000000001)
  (define-fun somePlant6 () (_ BitVec 17)
    #b00000000000000001)
  (define-fun otl184 () (_ BitVec 17)
    #b10000111000000110)
  (define-fun w1somePlant22 () (_ BitVec 17)
    #b00000000010010001)
  (define-fun otl224 () (_ BitVec 17)
    #b10011001011110011)
  (define-fun otl69 () (_ BitVec 17)
    #b00000000000000000)
  (define-fun somePlant32 () (_ BitVec 17)
    #b00000000000000000)
  (define-fun otl_eq_Old_plant_4 () (_ BitVec 17)
    #b01000000100000000)
  (define-fun winter () (_ BitVec 17)
    #b01100000010000001)
  (define-fun w1somePlant32 () (_ BitVec 17)
    #b00000000010010001)
  (define-fun otl_eq_Old_plant_1 () (_ BitVec 17)
    #b10010001011010011)
  (define-fun otl70 () (_ BitVec 17)
    #b00000000000000000)
  (define-fun otl253 () (_ BitVec 17)
    #b10110111010010110)
  (define-fun otl_geq_Old_plant_1 () (_ BitVec 17)
    #b11111111111111111)
  (define-fun plant2 () (_ BitVec 17)
    #b00000000000000000)
  (define-fun otl18 () (_ BitVec 17)
    #b00000000000000001)
  (define-fun otl150 () (_ BitVec 17)
    #b00000000000000000)
  (define-fun otl22 () (_ BitVec 17)
    #b00000000000000000)
  (define-fun otl98 () (_ BitVec 17)
    #b00000111111111100)
  (define-fun w1somePlant2 () (_ BitVec 17)
    #b00000000010010001)
  (define-fun otl217 () (_ BitVec 17)
    #b00111000011100000)
  (define-fun otl110 () (_ BitVec 17)
    #b00111111111111100)
  (define-fun somePlant4 () (_ BitVec 17)
    #b00000000000000001)
  (define-fun otl54 () (_ BitVec 17)
    #b00000000000000000)
  (define-fun w1somePlant3 () (_ BitVec 17)
    #b00000000010010001)
  (define-fun otl299 () (_ BitVec 17)
    #b11111111111111110)
  (define-fun otl43 () (_ BitVec 17)
    #b00000000000000000)
  (define-fun otl58 () (_ BitVec 17)
    #b11111111111111111)
  (define-fun otl314 () (_ BitVec 17)
    #b11111111111101111)
  (define-fun w1somePlant5 () (_ BitVec 17)
    #b00000000010010001)
  (define-fun otl105 () (_ BitVec 17)
    #b11111111111111111)
  (define-fun otl308 () (_ BitVec 17)
    #b11111101111111111)
  (define-fun somePlant22 () (_ BitVec 17)
    #b00000000000000000)
  (define-fun otl30 () (_ BitVec 17)
    #b00000000000000000)
  (define-fun otl100 () (_ BitVec 17)
    #b00000001111111100)
  (define-fun otl114 () (_ BitVec 17)
    #b11111111111111111)
  (define-fun otl39 () (_ BitVec 17)
    #b00000000000000000)
  (define-fun somePlant72 () (_ BitVec 17)
    #b00000000000000000)
  (define-fun otl31 () (_ BitVec 17)
    #b00000000000000000)
  (define-fun otl55 () (_ BitVec 17)
    #b00000000000000000)
  (define-fun otl115 () (_ BitVec 17)
    #b11111111111111111)
  (define-fun w1somePlant6 () (_ BitVec 17)
    #b00000000010010001)
  (define-fun otl_eq_Old_plant_3 () (_ BitVec 17)
    #b00000100000000100)
  (define-fun somePlant5 () (_ BitVec 17)
    #b00000000000000001)
  (define-fun otl86 () (_ BitVec 17)
    #b00000000000011100)
  (define-fun otl27 () (_ BitVec 17)
    #b00000000000000000)
  (define-fun w1somePlant4 () (_ BitVec 17)
    #b00000000010010001)
  (define-fun otl21 () (_ BitVec 17)
    #b00000000000000001)
  (define-fun otl3 () (_ BitVec 17)
    #b11111111111111111)
  (define-fun plant1 () (_ BitVec 17)
    #b10000011000000010)
  (define-fun somePlant2 () (_ BitVec 17)
    #b00000000000000000)
  (define-fun plant8 () (_ BitVec 17)
    #b00000000000000000)
  (define-fun otl94 () (_ BitVec 17)
    #b11111111111111111)
  (define-fun w1somePlant1 () (_ BitVec 17)
    #b00000000010010001)
  (define-fun otl208 () (_ BitVec 17)
    #b00101110000101100)
  (define-fun otl260 () (_ BitVec 17)
    #b11111111111111111)
  (define-fun otl241 () (_ BitVec 17)
    #b00010101000010100)
  (define-fun plant3 () (_ BitVec 17)
    #b00000000000011000)
  (define-fun otl122 () (_ BitVec 17)
    #b00001111111111100)
  (define-fun otl209 () (_ BitVec 17)
    #b10010111000010110)
  (define-fun otl62 () (_ BitVec 17)
    #b00000011111111100)
  (define-fun otl12 () (_ BitVec 17)
    #b00000000000000000)
  (define-fun otl148 () (_ BitVec 17)
    #b00000000000000000)
  (define-fun otl297 () (_ BitVec 17)
    #b11111111111111111)
  (define-fun otl138 () (_ BitVec 17)
    #b00000000000000000)
  (define-fun otl130 () (_ BitVec 17)
    #b00000000000000000)
  (define-fun otl82 () (_ BitVec 17)
    #b11111111111111111)
  (define-fun otl13 () (_ BitVec 17)
    #b00000000000000000)
  (define-fun otl136 () (_ BitVec 17)
    #b00000000000000000)
  (define-fun otl9 () (_ BitVec 17)
    #b00000000000000001)
  (define-fun otl155 () (_ BitVec 17)
    #b11111111111111111)
  (define-fun otl_eq_Old_plant_2 () (_ BitVec 17)
    #b00101010000101000)
  (define-fun otl118 () (_ BitVec 17)
    #b11111111111111111)
  (define-fun otl301 () (_ BitVec 17)
    #b11010101011001011)
  (define-fun otl154 () (_ BitVec 17)
    #b11111111111111111)
  (define-fun otl126 () (_ BitVec 17)
    #b11111111111111111)
  (define-fun summer () (_ BitVec 17)
    #b00000110000001100)
  (define-fun otl64 () (_ BitVec 17)
    #b10000000011111110)
  (define-fun otl141 () (_ BitVec 17)
    #b00000000000000000)
  (define-fun otl19 () (_ BitVec 17)
    #b00000000000000000)
  (define-fun rest () (_ BitVec 17)
    #b01000000100000001)
  (define-fun plant6 () (_ BitVec 17)
    #b00001000000100000)
  (define-fun otl305 () (_ BitVec 17)
    #b11101111111111111)
  (define-fun otl146 () (_ BitVec 17)
    #b00000000000000000)
  (define-fun otl1 () (_ BitVec 17)
    #b01000000000000001)
  (define-fun otl324 () (_ BitVec 17)
    #b11111111111111111)
  (define-fun w1somePlant12 () (_ BitVec 17)
    #b00000000010010001)
  (define-fun otl74 () (_ BitVec 17)
    #b00000000000000000)
  (define-fun otl129 () (_ BitVec 17)
    #b00000000000000000)
  (define-fun otl225 () (_ BitVec 17)
    #b01001100101111001)
  (define-fun otl257 () (_ BitVec 17)
    #b11001111100111111)
  (define-fun spring () (_ BitVec 17)
    #b10000001100000010)
  (define-fun otl200 () (_ BitVec 17)
    #b00101010000111000)
  (define-fun otl24 () (_ BitVec 17)
    #b00000000000000001)
  (define-fun otl124 () (_ BitVec 17)
    #b10000011111101110)
  (define-fun otl8 () (_ BitVec 17)
    #b01000000110000001)
  (define-fun otl66 () (_ BitVec 17)
    #b11111111111111111)
  (define-fun otl33 () (_ BitVec 17)
    #b00000000000000001)
  (define-fun otl103 () (_ BitVec 17)
    #b11111111111111111)
  (define-fun otl40 () (_ BitVec 17)
    #b00000000000000000)
  (define-fun otl240 () (_ BitVec 17)
    #b00101010000101000)
  (define-fun otl16 () (_ BitVec 17)
    #b00000000000000000)
  (define-fun otl201 () (_ BitVec 17)
    #b00010101000011100)
  (define-fun otl117 () (_ BitVec 17)
    #b11111111111111111)
  (define-fun w1somePlant7 () (_ BitVec 17)
    #b00000010110110001)
  (define-fun otl185 () (_ BitVec 17)
    #b11000011100000011)
  (define-fun newSeason () (_ BitVec 17)
    #b10101010110010110)
  (define-fun otl317 () (_ BitVec 17)
    #b01111111111111101)
  (define-fun somePlant3 () (_ BitVec 17)
    #b00000000000000001)
  (define-fun otl312 () (_ BitVec 17)
    #b11111111110111111)
  (define-fun somePlant12 () (_ BitVec 17)
    #b00000000000000001)
  (define-fun otl151 () (_ BitVec 17)
    #b00000000000000000)
  (define-fun somePlant7 () (_ BitVec 17)
    #b00000000000000000)
  (define-fun otl112 () (_ BitVec 17)
    #b10000111110011110)
  (define-fun i_loopInt () Int
    1)
  (define-fun otl67 () (_ BitVec 17)
    #b11111111111111111)
  (define-fun somePlant62 () (_ BitVec 17)
    #b00000000000000001)
  (define-fun loops () (_ BitVec 17)
    #b10000000000000010)
  (define-fun somePlant52 () (_ BitVec 17)
    #b00000000000000001)
  (define-fun plant4 () (_ BitVec 17)
    #b00000100000000100)
  (define-fun w1somePlant52 () (_ BitVec 17)
    #b00000000010010001)
  (define-fun otl306 () (_ BitVec 17)
    #b11110111111111111)
  (define-fun otl46 () (_ BitVec 17)
    #b00000000000000000)
  (define-fun otl87 () (_ BitVec 17)
    #b00000000000000100)
  (define-fun otl249 () (_ BitVec 17)
    #b11111111111111111)
  (define-fun otl267 () (_ BitVec 17)
    #b11111111111111111)
  (define-fun otl6 () (_ BitVec 17)
    #b11111111111111111)
  (define-fun otl85 () (_ BitVec 17)
    #b00000000000011000)
  (define-fun otl32 () (_ BitVec 17)
    #b11111111111111111)
  (define-fun otl164 () (_ BitVec 17)
    #b11111111111111111)
  (define-fun otl178 () (_ BitVec 17)
    #b01000000100000001)
  (define-fun otl179 () (_ BitVec 17)
    #b11111111111111111)
  (define-fun otl275 () (_ BitVec 17)
    #b00000010000000100)
  (define-fun otl268 () (_ BitVec 17)
    #b11100111110001111)
  (define-fun otl140 () (_ BitVec 17)
    #b11111111111111111)
  (define-fun otl14 () (_ BitVec 17)
    #b11111111111111111)
  (define-fun otl17 () (_ BitVec 17)
    #b11111111111111111)
  (define-fun otl328 () (_ BitVec 17)
    #b11111111111111111)
  (define-fun otl284 () (_ BitVec 17)
    #b11111111111111111)
  (define-fun otl218 () (_ BitVec 17)
    #b00011000001100000)
  (define-fun otl223 () (_ BitVec 17)
    #b11111111111111111)
  (define-fun otl0 () (_ BitVec 17)
    #b01111111111111101)
  (define-fun otl276 () (_ BitVec 17)
    #b00001100000011000)
  (define-fun otl135 () (_ BitVec 17)
    #b00000000000000000)
  (define-fun otl161 () (_ BitVec 17)
    #b11111111111111111)
  (define-fun otl239 () (_ BitVec 17)
    #b11111111111111111)
  (define-fun otl266 () (_ BitVec 17)
    #b00000110000001100)
  (define-fun otl71 () (_ BitVec 17)
    #b11111111111111111)
  (define-fun otl298 () (_ BitVec 17)
    #b11111111111111110)
  (define-fun otl243 () (_ BitVec 17)
    #b11111111111111111)
  (define-fun otl83 () (_ BitVec 17)
    #b11111111111111111)
  (define-fun otl53 () (_ BitVec 17)
    #b11111111111111111)
  (define-fun otl128 () (_ BitVec 17)
    #b11111111111111111)
  (define-fun otl56 () (_ BitVec 17)
    #b11111111111111111)
  (define-fun otl116 () (_ BitVec 17)
    #b11111111111111111)
  (define-fun otl173 () (_ BitVec 17)
    #b11111111111111111)
  (define-fun otl63 () (_ BitVec 17)
    #b00000000111111100)
  (define-fun otl157 () (_ BitVec 17)
    #b11000011100000011)
  (define-fun otl29 () (_ BitVec 17)
    #b11111111111111111)
  (define-fun otl147 () (_ BitVec 17)
    #b00000000000000000)
  (define-fun otl50 () (_ BitVec 17)
    #b11111111111111111)
  (define-fun otl207 () (_ BitVec 17)
    #b11111111111111111)
  (define-fun otl163 () (_ BitVec 17)
    #b01000000100011001)
  (define-fun otl143 () (_ BitVec 17)
    #b11111111111111111)
  (define-fun otl302 () (_ BitVec 17)
    #b00000000000000001)
  (define-fun otl20 () (_ BitVec 17)
    #b11111111111111111)
  (define-fun otl235 () (_ BitVec 17)
    #b11111111111111111)
  (define-fun otl292 () (_ BitVec 17)
    #b10000000100000010)
  (define-fun otl35 () (_ BitVec 17)
    #b11111111111111111)
  (define-fun otl204 () (_ BitVec 17)
    #b00001000000001000)
  (define-fun otl280 () (_ BitVec 17)
    #b00001000000010000)
  (define-fun otl234 () (_ BitVec 17)
    #b00000000000000000)
  (define-fun otl153 () (_ BitVec 17)
    #b01000000010000001)
  (define-fun otl226 () (_ BitVec 17)
    #b00001000001110000)
  (define-fun otl177 () (_ BitVec 17)
    #b10111111011111110)
  (define-fun otl11 () (_ BitVec 17)
    #b11111111111111111)
  (define-fun otl256 () (_ BitVec 17)
    #b00001000000001000)
  (define-fun otl152 () (_ BitVec 17)
    #b11111111111111111)
  (define-fun otl283 () (_ BitVec 17)
    #b00001000000010000)
  (define-fun otl271 () (_ BitVec 17)
    #b10011111101111110)
  (define-fun otl195 () (_ BitVec 17)
    #b11111111111111111)
  (define-fun otl176 () (_ BitVec 17)
    #b11111111111111111)
  (define-fun otl113 () (_ BitVec 17)
    #b00000000010000000)
  (define-fun otl158 () (_ BitVec 17)
    #b11111111111111111)
  (define-fun otl291 () (_ BitVec 17)
    #b11111100111111011)
  (define-fun otl23 () (_ BitVec 17)
    #b11111111111111111)
  (define-fun otl322 () (_ BitVec 17)
    #b00000000000000000)
  (define-fun otl73 () (_ BitVec 17)
    #b00000000000000000)
  (define-fun otl248 () (_ BitVec 17)
    #b01000000100000001)
  (define-fun otl72 () (_ BitVec 17)
    #b11111111111111111)
  (define-fun otl258 () (_ BitVec 17)
    #b11111111111111111)
  (define-fun otl194 () (_ BitVec 17)
    #b00000001000000000)
  (define-fun otl282 () (_ BitVec 17)
    #b11001111100011111)
  (define-fun otl263 () (_ BitVec 17)
    #b10000001100000010)
  (define-fun otl281 () (_ BitVec 17)
    #b00110000011100000)
  (define-fun otl238 () (_ BitVec 17)
    #b00000000000000000)
  (define-fun otl107 () (_ BitVec 17)
    #b11111111111111111)
  (define-fun otl95 () (_ BitVec 17)
    #b11111111111111111)
  (define-fun otl75 () (_ BitVec 17)
    #b00000000000000000)
  (define-fun otl300 () (_ BitVec 17)
    #b10101010110010110)
  (define-fun otl84 () (_ BitVec 17)
    #b11111111111100111)
  (define-fun otl160 () (_ BitVec 17)
    #b01000000100000001)
  (define-fun otl274 () (_ BitVec 17)
    #b00000011000000100)
  (define-fun otl149 () (_ BitVec 17)
    #b00000000000000000)
  (define-fun otl132 () (_ BitVec 17)
    #b11111111111111111)
  (define-fun otl212 () (_ BitVec 17)
    #b01100000110000000)
  (define-fun otl203 () (_ BitVec 17)
    #b11111111111111111)
  (define-fun otl251 () (_ BitVec 17)
    #b11111111111111111)
  (define-fun otl205 () (_ BitVec 17)
    #b11110111111110111)
  (define-fun otl277 () (_ BitVec 17)
    #b11110011111100111)
  (define-fun otl125 () (_ BitVec 17)
    #b00000000000100000)
  (define-fun otl237 () (_ BitVec 17)
    #b11111111111111111)
  (define-fun otlDenom () Int
    24)
  (define-fun otl181 () (_ BitVec 17)
    #b11111001111111011)
  (define-fun otl133 () (_ BitVec 17)
    #b00000000000000000)
  (define-fun otl318 () (_ BitVec 17)
    #b00000000000000001)
  (define-fun otl4 () (_ BitVec 17)
    #b10111111011111110)
  (define-fun otl123 () (_ BitVec 17)
    #b00000111111011100)
  (define-fun otl171 () (_ BitVec 17)
    #b10110111011011110)
  (define-fun otl265 () (_ BitVec 17)
    #b11111001111110011)
  (define-fun otl190 () (_ BitVec 17)
    #b00000000000000000)
  (define-fun otl231 () (_ BitVec 17)
    #b11111111111111111)
  (define-fun otl183 () (_ BitVec 17)
    #b11111111111111111)
  (define-fun otl187 () (_ BitVec 17)
    #b11111111111111111)
  (define-fun otl80 () (_ BitVec 17)
    #b11111111111111111)
  (define-fun otl222 () (_ BitVec 17)
    #b00001000000100000)
  (define-fun otl111 () (_ BitVec 17)
    #b00001111100111100)
  (define-fun otl259 () (_ BitVec 17)
    #b00010000001000000)
  (define-fun otl211 () (_ BitVec 17)
    #b11111111111111111)
  (define-fun otl131 () (_ BitVec 17)
    #b11111111111111111)
  (define-fun otl189 () (_ BitVec 17)
    #b11111111111111111)
  (define-fun otl264 () (_ BitVec 17)
    #b11111111111111111)
  (define-fun otl97 () (_ BitVec 17)
    #b00000100000000100)
  (define-fun otl202 () (_ BitVec 17)
    #b00000100000001100)
  (define-fun otl96 () (_ BitVec 17)
    #b11111011111111011)
  (define-fun otl167 () (_ BitVec 17)
    #b11111111111111111)
  (define-fun otl162 () (_ BitVec 17)
    #b10111111011100110)
  (define-fun otl199 () (_ BitVec 17)
    #b11111111111111111)
  (define-fun otl285 () (_ BitVec 17)
    #b00100000010000000)
  (define-fun otl270 () (_ BitVec 17)
    #b11111111111111111)
  (define-fun otl229 () (_ BitVec 17)
    #b11111111111111111)
  (define-fun otl213 () (_ BitVec 17)
    #b10011111001111111)
  (define-fun otl296 () (_ BitVec 17)
    #b11111111111111111)
  (define-fun otl220 () (_ BitVec 17)
    #b00010000001000000)
  (define-fun otl261 () (_ BitVec 17)
    #b11111111111111111)
  (define-fun otl278 () (_ BitVec 17)
    #b00000010000000100)
  (define-fun otl290 () (_ BitVec 17)
    #b10000000100000010)
  (define-fun otl273 () (_ BitVec 17)
    #b11111111111111111)
  (define-fun otl166 () (_ BitVec 17)
    #b01000100100000101)
  (define-fun costHAvg () Real
    0.0)
  (define-fun otl325 () (_ BitVec 17)
    #b11111111111111111)
  (define-fun otl215 () (_ BitVec 17)
    #b11111111111111111)
  (define-fun otl89 () (_ BitVec 17)
    #b00000000000000000)
  (define-fun otl196 () (_ BitVec 17)
    #b00000000000110000)
  (define-fun otl255 () (_ BitVec 17)
    #b11111111111111111)
  (define-fun otl254 () (_ BitVec 17)
    #b00000000000000000)
  (define-fun otl198 () (_ BitVec 17)
    #b00000000000001000)
  (define-fun otl227 () (_ BitVec 17)
    #b11111111111111111)
  (define-fun otl250 () (_ BitVec 17)
    #b00000000000000000)
  (define-fun otl236 () (_ BitVec 17)
    #b00000000000000000)
  (define-fun otl170 () (_ BitVec 17)
    #b11111111111111111)
  (define-fun otl210 () (_ BitVec 17)
    #b00000110000000100)
  (define-fun costHSum () Real
    0.0)
  (define-fun otl159 () (_ BitVec 17)
    #b10111111011111110)
  (define-fun otl320 () (_ BitVec 17)
    #b11111111111111111)
  (define-fun otl287 () (_ BitVec 17)
    #b00111111011111101)
  (define-fun in_loop () (_ BitVec 17)
    #b11111111111111110)
  (define-fun otl137 () (_ BitVec 17)
    #b00000000000000000)
  (define-fun otl286 () (_ BitVec 17)
    #b11000000100000010)
  (define-fun otl41 () (_ BitVec 17)
    #b11111111111111111)
  (define-fun otl44 () (_ BitVec 17)
    #b11111111111111111)
  (define-fun otl168 () (_ BitVec 17)
    #b10001111000111110)
  (define-fun otl38 () (_ BitVec 17)
    #b11111111111111111)
  (define-fun otl219 () (_ BitVec 17)
    #b11111111111111111)
  (define-fun otl288 () (_ BitVec 17)
    #b00100000010000001)
  (define-fun otl295 () (_ BitVec 17)
    #b11111111111111111)
  (define-fun otl289 () (_ BitVec 17)
    #b11111111111111110)
  (define-fun otl180 () (_ BitVec 17)
    #b00000110000000100)
  (define-fun otl104 () (_ BitVec 17)
    #b11111111111111111)
  (define-fun i_loop () (_ BitVec 17)
    #b00000000000000001)
  (define-fun otl92 () (_ BitVec 17)
    #b11111111111111111)
  (define-fun otl101 () (_ BitVec 17)
    #b00000000000000100)
  (define-fun costLSum () Real
    31.3)
  (define-fun otl59 () (_ BitVec 17)
    #b11111111111111111)
  (define-fun otl327 () (_ BitVec 17)
    #b00000000000000000)
  (define-fun otl165 () (_ BitVec 17)
    #b10111011011111010)
  (define-fun otl244 () (_ BitVec 17)
    #b01000000100000000)
  (define-fun otl269 () (_ BitVec 17)
    #b00011000001110000)
  (define-fun otl108 () (_ BitVec 17)
    #b11001111100111111)
  (define-fun otl221 () (_ BitVec 17)
    #b11101111110111111)
  (define-fun otl60 () (_ BitVec 17)
    #b01111100111111101)
  (define-fun otl206 () (_ BitVec 17)
    #b00000100000000100)
  (define-fun otl186 () (_ BitVec 17)
    #b10000001100000010)
  (define-fun otl228 () (_ BitVec 17)
    #b00000000000000000)
  (define-fun otl169 () (_ BitVec 17)
    #b01110000111000001)
  (define-fun otl188 () (_ BitVec 17)
    #b00000000000000000)
  (define-fun otl156 () (_ BitVec 17)
    #b00111100011111100)
  (define-fun otl26 () (_ BitVec 17)
    #b11111111111111111)
  (define-fun otl145 () (_ BitVec 17)
    #b00000000000000000)
  (define-fun otl172 () (_ BitVec 17)
    #b01001000100100001)
  (define-fun otl5 () (_ BitVec 17)
    #b01000000100000001)
  (define-fun otl121 () (_ BitVec 17)
    #b00001000000100000)
  (define-fun otl109 () (_ BitVec 17)
    #b00110000011000000)
  (define-fun otl47 () (_ BitVec 17)
    #b11111111111111111)
  (define-fun otl214 () (_ BitVec 17)
    #b00010000001000000)
  (define-fun otl119 () (_ BitVec 17)
    #b11111111111111111)
  (define-fun otl182 () (_ BitVec 17)
    #b10000001000000010)
  (define-fun otl191 () (_ BitVec 17)
    #b11111111111111111)
  (define-fun otl65 () (_ BitVec 17)
    #b10000000000000010)
  (define-fun otl230 () (_ BitVec 17)
    #b00000000000000000)
  (define-fun otl197 () (_ BitVec 17)
    #b11111111111001111)
  (define-fun otl242 () (_ BitVec 17)
    #b00000000000000000)
  (define-fun otl144 () (_ BitVec 17)
    #b11111111111111111)
  (define-fun otl245 () (_ BitVec 17)
    #b11111111111111111)
  (define-fun otl262 () (_ BitVec 17)
    #b01111110011111101)
  (define-fun otl279 () (_ BitVec 17)
    #b11111111111111111)
  (define-fun otl175 () (_ BitVec 17)
    #b01000000100000001)
  (define-fun otl120 () (_ BitVec 17)
    #b11110111111011111)
  (define-fun otl174 () (_ BitVec 17)
    #b10111111011111110)
  (define-fun otl293 () (_ BitVec 17)
    #b11111111111111111)
  (define-fun otl272 () (_ BitVec 17)
    #b01100000010000001)
  (define-fun otl61 () (_ BitVec 17)
    #b00000011000000000)
  (define-fun otl323 () (_ BitVec 17)
    #b11111111111111111)
  (define-fun otl77 () (_ BitVec 17)
    #b00000000000000000)
  (define-fun otl68 () (_ BitVec 17)
    #b11111111111111111)
  (define-fun otl99 () (_ BitVec 17)
    #b00000011111111000)
  (define-fun x ((x!0 Int)) Real (ite (= x!0 0) 2.0 (ite (= x!0 3) 2.0 (ite (= x!0 5) 1.0 (ite (= x!0 6) 2.0 (ite (= x!0 9) 1.0 (ite (= x!0 11) 1.0 (ite (= x!0 13) 1.0 (ite (= x!0 15) 2.0 0.0)))))))))
  (define-fun /0 ((x!0 Real) (x!1 Real)) Real 0.0)
  (define-fun otlRC_Old_x ((x!0 Int)) Bool false)
  (define-fun Old_plant ((x!0 Int)) Real (ite (= x!0 2) 3.0 (ite (= x!0 3) 2.0 (ite (= x!0 5) 2.0 (ite (= x!0 8) 4.0 (ite (= x!0 10) 2.0 (ite (= x!0 11) 3.0 (ite (= x!0 12) 2.0 (ite (= x!0 14) 2.0 (ite (= x!0 15) 4.0 (ite (= x!0 17) 0.0 1.0)))))))))))
  (define-fun plant ((x!0 Int)) Real (ite (= x!0 4) 1.0 (ite (= x!0 7) 1.0 (ite (= x!0 10) 2.0 (ite (= x!0 14) 2.0 0.0)))))
  (define-fun otlRC_Delta ((x!0 Int)) Bool false)
  (define-fun Old_x ((x!0 Int)) Real (ite (= x!0 0) 2.0 (ite (= x!0 3) 2.0 (ite (= x!0 5) 1.0 (ite (= x!0 6) 2.0 (ite (= x!0 9) 1.0 (ite (= x!0 11) 1.0 (ite (= x!0 13) 1.0 (ite (= x!0 15) 2.0 (ite (= x!0 17) 0.0 3.0))))))))))
  (define-fun otlLength ((x!0 Int)) Int (ite (= x!0 1) 3 (ite (= x!0 14) 2 (ite (= x!0 13) 2 (ite (= x!0 11) 2 (ite (= x!0 9) 2 (ite (= x!0 7) 3 (ite (= x!0 2) 2 1))))))))
  (define-fun otlDelta ((x!0 Int)) Real (ite (= x!0 1) 3.0 (ite (= x!0 2) 2.0 (ite (= x!0 7) 3.0 (ite (= x!0 9) 2.0 (ite (= x!0 11) 2.0 (ite (= x!0 13) 2.0 (ite (= x!0 14) 2.0 (ite (= x!0 16) 0.0 1.0)))))))))
  (define-fun otlRC_Old_plant ((x!0 Int)) Bool false)
)
(objectives
 (costHAvg 0)
 (costLSum 31.3)
)
(:added-eqs                   18434413
 :arith-eq-adapter            39303
 :arith-assume-eqs            114
 :arith-bound-propagations-lp 349866
 :arith-branch                1868
 :arith-conflicts             5849
 :arith-cube-calls            467
 :arith-diseq                 1849780
 :arith-fixed-eqs             2309348
 :arith-gcd-calls             1878
 :arith-gcd-conflict          2
 :arith-gomory-cuts           2
 :arith-hnf-calls             1
 :arith-lower                 10347990
 :arith-make-feasible         237544
 :arith-max-columns           4771
 :arith-max-rows              4342
 :arith-nla-explanations      10
 :arith-nla-lemmas            5
 :arith-offset-eqs            2744524
 :arith-patches               1876
 :arith-patches-success       6
 :arith-upper                 6877722
 :binary-propagations         59816324
 :bv-bit2core                 5349014
 :bv-diseqs                   9938
 :bv-dynamic-diseqs           2554
 :bv-dynamic-eqs              23005
 :bv->core-eq                 5920480
 :conflicts                   42410
 :decisions                   379402
 :del-clause                  125844
 :final-checks                2099
 :interface-eqs               114
 :max-memory                  305.00
 :maxsat-cores                12
 :memory                      303.98
 :minimized-lits              661694
 :mk-bool-var                 1982421
 :mk-clause                   334996
 :mk-clause-binary            70753
 :num-allocs                  2243432673908.00
 :num-checks                  204
 :propagations                179625579
 :restarts                    297
 :rlimit-count                770933578
 :solve-eqs-elim-vars         203
 :solve-eqs-steps             1307
 :time                        519.68
 :total-time                  519.76)
